;; sequence(s): A249117
;; terms: 1 3 4 6 7 9 10 12 14 15 17 18 20 21 23 24 26 28 29 31
;; small program: (loop(2 * (x * x), 2, 2) * (1 + x)) div (1 + loop(x * x, 2, 1 + 2))
;; fast program: ((1 + x) * loop((x * x) * x, 1, 2 + 2)) div (1 + (2 * (2 * (2 + (2 * (2 + 2))))))
(set-logic UFNIA)
(define-fun divf ((a Int) (b Int)) Int (ite (< 0 b) (div a b) (div (- a) (- b))))
(declare-fun f0 (Int) Int)
(declare-fun g0 () Int)
(declare-fun h0 () Int)
(declare-fun u0 (Int Int) Int)
(declare-fun v0 () Int)
(declare-fun f1 (Int) Int)
(declare-fun g1 () Int)
(declare-fun h1 () Int)
(declare-fun u1 (Int Int) Int)
(declare-fun v1 () Int)
(declare-fun small (Int) Int)
(declare-fun f2 (Int) Int)
(declare-fun g2 () Int)
(declare-fun h2 () Int)
(declare-fun u2 (Int Int) Int)
(declare-fun v2 () Int)
(declare-fun fast (Int) Int)
(assert (forall ((x Int)) (= (f0 x) (* 2 (* x x)))))
(assert (= g0 2))
(assert (= h0 2))
(assert (forall ((x Int) (y Int)) (= (u0 x y) (ite (<= x 0) y (f0 (u0 (- x 1) y))))))
(assert (= v0 (u0 g0 h0)))
(assert (forall ((x Int)) (= (f1 x) (* x x))))
(assert (= g1 2))
(assert (= h1 (+ 1 2)))
(assert (forall ((x Int) (y Int)) (= (u1 x y) (ite (<= x 0) y (f1 (u1 (- x 1) y))))))
(assert (= v1 (u1 g1 h1)))
(assert (forall ((x Int)) (= (small x) (divf (* v0 (+ 1 x)) (+ 1 v1)))))
(assert (forall ((x Int)) (= (f2 x) (* (* x x) x))))
(assert (= g2 1))
(assert (= h2 (+ 2 2)))
(assert (forall ((x Int) (y Int)) (= (u2 x y) (ite (<= x 0) y (f2 (u2 (- x 1) y))))))
(assert (= v2 (u2 g2 h2)))
(assert (forall ((x Int)) (= (fast x) (divf (* (+ 1 x) v2) (+ 1 (* 2 (* 2 (+ 2 (* 2 (+ 2 2))))))))))
(assert (exists ((c Int)) (and (>= c 0) (not (= (small c) (fast c))))))
(check-sat)
